minizinc/sudoku_problems2/sudoku_p0.dzn
%
% sudoku_p0.dzn
% See http://www.hakank.org/minizinc/sudoku_gcc.mzn
% 
% This problem is problem 0 from
% Gecode's sudoku.cpp
% http://www.gecode.org/gecode-doc-latest/sudoku_8cpp-source.html
% 
x = array2d(1..n, 1..n, [   
% 0
  _,  _,  _,  2,  _,  5,  _,  _,  _,
  _,  9,  _,  _,  _,  _,  7,  3,  _,
  _,  _,  2,  _,  _,  9,  _,  6,  _,
  2,  _,  _,  _,  _,  _,  4,  _,  9,
  _,  _,  _,  _,  7,  _,  _,  _,  _,
  6,  _,  9,  _,  _,  _,  _,  _,  1,
  _,  8,  _,  4,  _,  _,  1,  _,  _,
  _,  6,  3,  _,  _,  _,  _,  8,  _,
  _,  _,  _,  6,  _,  8,  _,  _,  _
]);

n = 9;


